(set-logic BV) (define-fun origCir ((n319 Bool) (n315 Bool) (n325 Bool) (n322 Bool)) Bool (and (and n325 (xor n315 n319)) n322)) (synth-fun skel ((n319 Bool) (n315 Bool) (n325 Bool) (n322 Bool)) Bool) (declare-var n319 Bool) (declare-var n315 Bool) (declare-var n325 Bool) (declare-var n322 Bool) (constraint (= (origCir n319 n315 n325 n322) (skel n319 n315 n325 n322))) (check-synth)
